/*********************************************
 * OPL 22.1.1.0 Data
 * Author: Valentina
 * Creation Date: 30/05/2023 at 16:32:12
 *********************************************/

  n = 5; 
 InputBoard = [
 	[-1, -1, -1, 4, -1], 
 	[-1, -1, -1, -1, 5], 
 	[3, -1, -1, -1, -1], 
 	[-1, -1, 5, -1, -1],
 	[-1, 7, -1, -1, -1]
 ];